row=9;
column=9;
Board=[|0,1,0,1,0,1,1,0,1|1,1,1,1,1,1,1,1,1|0,0,0,0,0,0,0,0,0|1,0,0,1,0,0,0,1,0|0,0,0,0,0,0,0,0,0|0,0,0,0,0,0,0,0,0|0,0,1,0,0,0,0,0,0|1,0,0,0,0,0,0,1,0|0,0,0,0,0,0,0,0,0|];
right = [4,0,4,0,4,1,3,1,3];
bottom = [4,1,3,1,3,0,3,2,3];
